(set-info :smt-lib-version 2.6)
(set-logic QF_NIA)
(set-info :source |
 more info in 'N. P. Lopes, L. Aksoy, V. Manquinho, J. Monteiro.
 Optimally Solving the MCM Problem Using Pseudo-Boolean Satisfiability.
 Technical Report RT/43/2010, INESC-ID, Nov. 2010'. |)
(set-info :category "industrial")
(set-info :status unknown)
(declare-fun X3 () Int)
(declare-fun X4 () Int)
(declare-fun X5 () Int)
(declare-fun X6 () Int)
(declare-fun X7 () Int)
(declare-fun X8 () Int)
(declare-fun X9 () Int)
(declare-fun S0 () Int)
(declare-fun S1 () Int)
(declare-fun S2 () Int)
(declare-fun S3 () Int)
(declare-fun S4 () Int)
(declare-fun S5 () Int)
(declare-fun S6 () Int)
(declare-fun S7 () Int)
(declare-fun S8 () Int)
(declare-fun S9 () Int)
(declare-fun S10 () Int)
(declare-fun S11 () Int)
(declare-fun S12 () Int)
(declare-fun S13 () Int)
(define-fun power2 ((x Int)) Bool
  (or (= x 1024) (= x 512) (= x 256) (= x 128) (= x 64) (= x 32) (= x 16) (= x 8) (= x 4) (= x 2) (= x 1)))
(assert (or
 (= X3 (+ S0 S1))
 (= X3 (- S0 S1))
 (= X3 (+ (* 127 S0) S1))
 (= X3 (- (* 127 S0) S1))
 (= X3 (- S0 (* 127 S1)))
 (= X3 (+ (* 127 S0) (* 127 S1)))
 (= X3 (- (* 127 S0) (* 127 S1)))
 (= X3 (+ (* 127 S0) (* 135 S1)))
 (= X3 (- (* 127 S0) (* 135 S1)))
 (= X3 (- (* 135 S0) (* 127 S1)))
 (= X3 (+ (* 127 S0) (* 647 S1)))
 (= X3 (- (* 127 S0) (* 647 S1)))
 (= X3 (- (* 647 S0) (* 127 S1)))
 (= X3 (+ (* 135 S0) S1))
 (= X3 (- (* 135 S0) S1))
 (= X3 (- S0 (* 135 S1)))
 (= X3 (+ (* 135 S0) (* 135 S1)))
 (= X3 (- (* 135 S0) (* 135 S1)))
 (= X3 (+ (* 135 S0) (* 647 S1)))
 (= X3 (- (* 135 S0) (* 647 S1)))
 (= X3 (- (* 647 S0) (* 135 S1)))
 (= X3 (+ (* 647 S0) S1))
 (= X3 (- (* 647 S0) S1))
 (= X3 (- S0 (* 647 S1)))
 (= X3 (+ (* 647 S0) (* 647 S1)))
 (= X3 (- (* 647 S0) (* 647 S1)))
))
(assert (and (> X3 0) (< X3 2048) (power2 S0) (power2 S1)))
(assert (or
 (= X4 (+ (* 127 S2) S3))
 (= X4 (- (* 127 S2) S3))
 (= X4 (- S2 (* 127 S3)))
 (= X4 (+ (* 127 S2) (* 127 S3)))
 (= X4 (- (* 127 S2) (* 127 S3)))
 (= X4 (+ (* 127 S2) (* 135 S3)))
 (= X4 (- (* 127 S2) (* 135 S3)))
 (= X4 (- (* 135 S2) (* 127 S3)))
 (= X4 (+ (* 127 S2) (* 647 S3)))
 (= X4 (- (* 127 S2) (* 647 S3)))
 (= X4 (- (* 647 S2) (* 127 S3)))
 (= X4 (+ (* 127 S2) (* X3 S3)))
 (= X4 (- (* 127 S2) (* X3 S3)))
 (= X4 (- (* X3 S2) (* 127 S3)))
 (= X4 (+ (* 135 S2) S3))
 (= X4 (- (* 135 S2) S3))
 (= X4 (- S2 (* 135 S3)))
 (= X4 (+ (* 135 S2) (* 135 S3)))
 (= X4 (- (* 135 S2) (* 135 S3)))
 (= X4 (+ (* 135 S2) (* 647 S3)))
 (= X4 (- (* 135 S2) (* 647 S3)))
 (= X4 (- (* 647 S2) (* 135 S3)))
 (= X4 (+ (* 135 S2) (* X3 S3)))
 (= X4 (- (* 135 S2) (* X3 S3)))
 (= X4 (- (* X3 S2) (* 135 S3)))
 (= X4 (+ (* 647 S2) S3))
 (= X4 (- (* 647 S2) S3))
 (= X4 (- S2 (* 647 S3)))
 (= X4 (+ (* 647 S2) (* 647 S3)))
 (= X4 (- (* 647 S2) (* 647 S3)))
 (= X4 (+ (* 647 S2) (* X3 S3)))
 (= X4 (- (* 647 S2) (* X3 S3)))
 (= X4 (- (* X3 S2) (* 647 S3)))
 (= X4 (+ (* X3 S2) S3))
 (= X4 (- (* X3 S2) S3))
 (= X4 (- S2 (* X3 S3)))
 (= X4 (+ (* X3 S2) (* X3 S3)))
 (= X4 (- (* X3 S2) (* X3 S3)))
))
(assert (and (> X4 0) (< X4 2048) (power2 S2) (power2 S3)))
(assert (or
 (= X5 (+ (* 127 S4) S5))
 (= X5 (- (* 127 S4) S5))
 (= X5 (- S4 (* 127 S5)))
 (= X5 (+ (* 127 S4) (* 127 S5)))
 (= X5 (- (* 127 S4) (* 127 S5)))
 (= X5 (+ (* 127 S4) (* 135 S5)))
 (= X5 (- (* 127 S4) (* 135 S5)))
 (= X5 (- (* 135 S4) (* 127 S5)))
 (= X5 (+ (* 127 S4) (* 647 S5)))
 (= X5 (- (* 127 S4) (* 647 S5)))
 (= X5 (- (* 647 S4) (* 127 S5)))
 (= X5 (+ (* 127 S4) (* X3 S5)))
 (= X5 (- (* 127 S4) (* X3 S5)))
 (= X5 (- (* X3 S4) (* 127 S5)))
 (= X5 (+ (* 127 S4) (* X4 S5)))
 (= X5 (- (* 127 S4) (* X4 S5)))
 (= X5 (- (* X4 S4) (* 127 S5)))
 (= X5 (+ (* 135 S4) S5))
 (= X5 (- (* 135 S4) S5))
 (= X5 (- S4 (* 135 S5)))
 (= X5 (+ (* 135 S4) (* 135 S5)))
 (= X5 (- (* 135 S4) (* 135 S5)))
 (= X5 (+ (* 135 S4) (* 647 S5)))
 (= X5 (- (* 135 S4) (* 647 S5)))
 (= X5 (- (* 647 S4) (* 135 S5)))
 (= X5 (+ (* 135 S4) (* X3 S5)))
 (= X5 (- (* 135 S4) (* X3 S5)))
 (= X5 (- (* X3 S4) (* 135 S5)))
 (= X5 (+ (* 135 S4) (* X4 S5)))
 (= X5 (- (* 135 S4) (* X4 S5)))
 (= X5 (- (* X4 S4) (* 135 S5)))
 (= X5 (+ (* 647 S4) S5))
 (= X5 (- (* 647 S4) S5))
 (= X5 (- S4 (* 647 S5)))
 (= X5 (+ (* 647 S4) (* 647 S5)))
 (= X5 (- (* 647 S4) (* 647 S5)))
 (= X5 (+ (* 647 S4) (* X3 S5)))
 (= X5 (- (* 647 S4) (* X3 S5)))
 (= X5 (- (* X3 S4) (* 647 S5)))
 (= X5 (+ (* 647 S4) (* X4 S5)))
 (= X5 (- (* 647 S4) (* X4 S5)))
 (= X5 (- (* X4 S4) (* 647 S5)))
 (= X5 (+ (* X3 S4) S5))
 (= X5 (- (* X3 S4) S5))
 (= X5 (- S4 (* X3 S5)))
 (= X5 (+ (* X3 S4) (* X3 S5)))
 (= X5 (- (* X3 S4) (* X3 S5)))
 (= X5 (+ (* X3 S4) (* X4 S5)))
 (= X5 (- (* X3 S4) (* X4 S5)))
 (= X5 (- (* X4 S4) (* X3 S5)))
 (= X5 (+ (* X4 S4) S5))
 (= X5 (- (* X4 S4) S5))
 (= X5 (- S4 (* X4 S5)))
 (= X5 (+ (* X4 S4) (* X4 S5)))
 (= X5 (- (* X4 S4) (* X4 S5)))
))
(assert (and (> X5 0) (< X5 2048) (power2 S4) (power2 S5)))
(assert (or
 (= X6 (+ (* 127 S6) S7))
 (= X6 (- (* 127 S6) S7))
 (= X6 (- S6 (* 127 S7)))
 (= X6 (+ (* 127 S6) (* 127 S7)))
 (= X6 (- (* 127 S6) (* 127 S7)))
 (= X6 (+ (* 127 S6) (* 135 S7)))
 (= X6 (- (* 127 S6) (* 135 S7)))
 (= X6 (- (* 135 S6) (* 127 S7)))
 (= X6 (+ (* 127 S6) (* 647 S7)))
 (= X6 (- (* 127 S6) (* 647 S7)))
 (= X6 (- (* 647 S6) (* 127 S7)))
 (= X6 (+ (* 127 S6) (* X3 S7)))
 (= X6 (- (* 127 S6) (* X3 S7)))
 (= X6 (- (* X3 S6) (* 127 S7)))
 (= X6 (+ (* 127 S6) (* X4 S7)))
 (= X6 (- (* 127 S6) (* X4 S7)))
 (= X6 (- (* X4 S6) (* 127 S7)))
 (= X6 (+ (* 127 S6) (* X5 S7)))
 (= X6 (- (* 127 S6) (* X5 S7)))
 (= X6 (- (* X5 S6) (* 127 S7)))
 (= X6 (+ (* 135 S6) S7))
 (= X6 (- (* 135 S6) S7))
 (= X6 (- S6 (* 135 S7)))
 (= X6 (+ (* 135 S6) (* 135 S7)))
 (= X6 (- (* 135 S6) (* 135 S7)))
 (= X6 (+ (* 135 S6) (* 647 S7)))
 (= X6 (- (* 135 S6) (* 647 S7)))
 (= X6 (- (* 647 S6) (* 135 S7)))
 (= X6 (+ (* 135 S6) (* X3 S7)))
 (= X6 (- (* 135 S6) (* X3 S7)))
 (= X6 (- (* X3 S6) (* 135 S7)))
 (= X6 (+ (* 135 S6) (* X4 S7)))
 (= X6 (- (* 135 S6) (* X4 S7)))
 (= X6 (- (* X4 S6) (* 135 S7)))
 (= X6 (+ (* 135 S6) (* X5 S7)))
 (= X6 (- (* 135 S6) (* X5 S7)))
 (= X6 (- (* X5 S6) (* 135 S7)))
 (= X6 (+ (* 647 S6) S7))
 (= X6 (- (* 647 S6) S7))
 (= X6 (- S6 (* 647 S7)))
 (= X6 (+ (* 647 S6) (* 647 S7)))
 (= X6 (- (* 647 S6) (* 647 S7)))
 (= X6 (+ (* 647 S6) (* X3 S7)))
 (= X6 (- (* 647 S6) (* X3 S7)))
 (= X6 (- (* X3 S6) (* 647 S7)))
 (= X6 (+ (* 647 S6) (* X4 S7)))
 (= X6 (- (* 647 S6) (* X4 S7)))
 (= X6 (- (* X4 S6) (* 647 S7)))
 (= X6 (+ (* 647 S6) (* X5 S7)))
 (= X6 (- (* 647 S6) (* X5 S7)))
 (= X6 (- (* X5 S6) (* 647 S7)))
 (= X6 (+ (* X3 S6) S7))
 (= X6 (- (* X3 S6) S7))
 (= X6 (- S6 (* X3 S7)))
 (= X6 (+ (* X3 S6) (* X3 S7)))
 (= X6 (- (* X3 S6) (* X3 S7)))
 (= X6 (+ (* X3 S6) (* X4 S7)))
 (= X6 (- (* X3 S6) (* X4 S7)))
 (= X6 (- (* X4 S6) (* X3 S7)))
 (= X6 (+ (* X3 S6) (* X5 S7)))
 (= X6 (- (* X3 S6) (* X5 S7)))
 (= X6 (- (* X5 S6) (* X3 S7)))
 (= X6 (+ (* X4 S6) S7))
 (= X6 (- (* X4 S6) S7))
 (= X6 (- S6 (* X4 S7)))
 (= X6 (+ (* X4 S6) (* X4 S7)))
 (= X6 (- (* X4 S6) (* X4 S7)))
 (= X6 (+ (* X4 S6) (* X5 S7)))
 (= X6 (- (* X4 S6) (* X5 S7)))
 (= X6 (- (* X5 S6) (* X4 S7)))
 (= X6 (+ (* X5 S6) S7))
 (= X6 (- (* X5 S6) S7))
 (= X6 (- S6 (* X5 S7)))
 (= X6 (+ (* X5 S6) (* X5 S7)))
 (= X6 (- (* X5 S6) (* X5 S7)))
))
(assert (and (> X6 0) (< X6 2048) (power2 S6) (power2 S7)))
(assert (or
 (= X7 (+ (* 127 S8) S9))
 (= X7 (- (* 127 S8) S9))
 (= X7 (- S8 (* 127 S9)))
 (= X7 (+ (* 127 S8) (* 127 S9)))
 (= X7 (- (* 127 S8) (* 127 S9)))
 (= X7 (+ (* 127 S8) (* 135 S9)))
 (= X7 (- (* 127 S8) (* 135 S9)))
 (= X7 (- (* 135 S8) (* 127 S9)))
 (= X7 (+ (* 127 S8) (* 647 S9)))
 (= X7 (- (* 127 S8) (* 647 S9)))
 (= X7 (- (* 647 S8) (* 127 S9)))
 (= X7 (+ (* 127 S8) (* X3 S9)))
 (= X7 (- (* 127 S8) (* X3 S9)))
 (= X7 (- (* X3 S8) (* 127 S9)))
 (= X7 (+ (* 127 S8) (* X4 S9)))
 (= X7 (- (* 127 S8) (* X4 S9)))
 (= X7 (- (* X4 S8) (* 127 S9)))
 (= X7 (+ (* 127 S8) (* X5 S9)))
 (= X7 (- (* 127 S8) (* X5 S9)))
 (= X7 (- (* X5 S8) (* 127 S9)))
 (= X7 (+ (* 127 S8) (* X6 S9)))
 (= X7 (- (* 127 S8) (* X6 S9)))
 (= X7 (- (* X6 S8) (* 127 S9)))
 (= X7 (+ (* 135 S8) S9))
 (= X7 (- (* 135 S8) S9))
 (= X7 (- S8 (* 135 S9)))
 (= X7 (+ (* 135 S8) (* 135 S9)))
 (= X7 (- (* 135 S8) (* 135 S9)))
 (= X7 (+ (* 135 S8) (* 647 S9)))
 (= X7 (- (* 135 S8) (* 647 S9)))
 (= X7 (- (* 647 S8) (* 135 S9)))
 (= X7 (+ (* 135 S8) (* X3 S9)))
 (= X7 (- (* 135 S8) (* X3 S9)))
 (= X7 (- (* X3 S8) (* 135 S9)))
 (= X7 (+ (* 135 S8) (* X4 S9)))
 (= X7 (- (* 135 S8) (* X4 S9)))
 (= X7 (- (* X4 S8) (* 135 S9)))
 (= X7 (+ (* 135 S8) (* X5 S9)))
 (= X7 (- (* 135 S8) (* X5 S9)))
 (= X7 (- (* X5 S8) (* 135 S9)))
 (= X7 (+ (* 135 S8) (* X6 S9)))
 (= X7 (- (* 135 S8) (* X6 S9)))
 (= X7 (- (* X6 S8) (* 135 S9)))
 (= X7 (+ (* 647 S8) S9))
 (= X7 (- (* 647 S8) S9))
 (= X7 (- S8 (* 647 S9)))
 (= X7 (+ (* 647 S8) (* 647 S9)))
 (= X7 (- (* 647 S8) (* 647 S9)))
 (= X7 (+ (* 647 S8) (* X3 S9)))
 (= X7 (- (* 647 S8) (* X3 S9)))
 (= X7 (- (* X3 S8) (* 647 S9)))
 (= X7 (+ (* 647 S8) (* X4 S9)))
 (= X7 (- (* 647 S8) (* X4 S9)))
 (= X7 (- (* X4 S8) (* 647 S9)))
 (= X7 (+ (* 647 S8) (* X5 S9)))
 (= X7 (- (* 647 S8) (* X5 S9)))
 (= X7 (- (* X5 S8) (* 647 S9)))
 (= X7 (+ (* 647 S8) (* X6 S9)))
 (= X7 (- (* 647 S8) (* X6 S9)))
 (= X7 (- (* X6 S8) (* 647 S9)))
 (= X7 (+ (* X3 S8) S9))
 (= X7 (- (* X3 S8) S9))
 (= X7 (- S8 (* X3 S9)))
 (= X7 (+ (* X3 S8) (* X3 S9)))
 (= X7 (- (* X3 S8) (* X3 S9)))
 (= X7 (+ (* X3 S8) (* X4 S9)))
 (= X7 (- (* X3 S8) (* X4 S9)))
 (= X7 (- (* X4 S8) (* X3 S9)))
 (= X7 (+ (* X3 S8) (* X5 S9)))
 (= X7 (- (* X3 S8) (* X5 S9)))
 (= X7 (- (* X5 S8) (* X3 S9)))
 (= X7 (+ (* X3 S8) (* X6 S9)))
 (= X7 (- (* X3 S8) (* X6 S9)))
 (= X7 (- (* X6 S8) (* X3 S9)))
 (= X7 (+ (* X4 S8) S9))
 (= X7 (- (* X4 S8) S9))
 (= X7 (- S8 (* X4 S9)))
 (= X7 (+ (* X4 S8) (* X4 S9)))
 (= X7 (- (* X4 S8) (* X4 S9)))
 (= X7 (+ (* X4 S8) (* X5 S9)))
 (= X7 (- (* X4 S8) (* X5 S9)))
 (= X7 (- (* X5 S8) (* X4 S9)))
 (= X7 (+ (* X4 S8) (* X6 S9)))
 (= X7 (- (* X4 S8) (* X6 S9)))
 (= X7 (- (* X6 S8) (* X4 S9)))
 (= X7 (+ (* X5 S8) S9))
 (= X7 (- (* X5 S8) S9))
 (= X7 (- S8 (* X5 S9)))
 (= X7 (+ (* X5 S8) (* X5 S9)))
 (= X7 (- (* X5 S8) (* X5 S9)))
 (= X7 (+ (* X5 S8) (* X6 S9)))
 (= X7 (- (* X5 S8) (* X6 S9)))
 (= X7 (- (* X6 S8) (* X5 S9)))
 (= X7 (+ (* X6 S8) S9))
 (= X7 (- (* X6 S8) S9))
 (= X7 (- S8 (* X6 S9)))
 (= X7 (+ (* X6 S8) (* X6 S9)))
 (= X7 (- (* X6 S8) (* X6 S9)))
))
(assert (and (> X7 0) (< X7 2048) (power2 S8) (power2 S9)))
(assert (or
 (= X8 (+ (* 127 S10) S11))
 (= X8 (- (* 127 S10) S11))
 (= X8 (- S10 (* 127 S11)))
 (= X8 (+ (* 127 S10) (* 127 S11)))
 (= X8 (- (* 127 S10) (* 127 S11)))
 (= X8 (+ (* 127 S10) (* 135 S11)))
 (= X8 (- (* 127 S10) (* 135 S11)))
 (= X8 (- (* 135 S10) (* 127 S11)))
 (= X8 (+ (* 127 S10) (* 647 S11)))
 (= X8 (- (* 127 S10) (* 647 S11)))
 (= X8 (- (* 647 S10) (* 127 S11)))
 (= X8 (+ (* 127 S10) (* X3 S11)))
 (= X8 (- (* 127 S10) (* X3 S11)))
 (= X8 (- (* X3 S10) (* 127 S11)))
 (= X8 (+ (* 127 S10) (* X4 S11)))
 (= X8 (- (* 127 S10) (* X4 S11)))
 (= X8 (- (* X4 S10) (* 127 S11)))
 (= X8 (+ (* 127 S10) (* X5 S11)))
 (= X8 (- (* 127 S10) (* X5 S11)))
 (= X8 (- (* X5 S10) (* 127 S11)))
 (= X8 (+ (* 127 S10) (* X6 S11)))
 (= X8 (- (* 127 S10) (* X6 S11)))
 (= X8 (- (* X6 S10) (* 127 S11)))
 (= X8 (+ (* 127 S10) (* X7 S11)))
 (= X8 (- (* 127 S10) (* X7 S11)))
 (= X8 (- (* X7 S10) (* 127 S11)))
 (= X8 (+ (* 135 S10) S11))
 (= X8 (- (* 135 S10) S11))
 (= X8 (- S10 (* 135 S11)))
 (= X8 (+ (* 135 S10) (* 135 S11)))
 (= X8 (- (* 135 S10) (* 135 S11)))
 (= X8 (+ (* 135 S10) (* 647 S11)))
 (= X8 (- (* 135 S10) (* 647 S11)))
 (= X8 (- (* 647 S10) (* 135 S11)))
 (= X8 (+ (* 135 S10) (* X3 S11)))
 (= X8 (- (* 135 S10) (* X3 S11)))
 (= X8 (- (* X3 S10) (* 135 S11)))
 (= X8 (+ (* 135 S10) (* X4 S11)))
 (= X8 (- (* 135 S10) (* X4 S11)))
 (= X8 (- (* X4 S10) (* 135 S11)))
 (= X8 (+ (* 135 S10) (* X5 S11)))
 (= X8 (- (* 135 S10) (* X5 S11)))
 (= X8 (- (* X5 S10) (* 135 S11)))
 (= X8 (+ (* 135 S10) (* X6 S11)))
 (= X8 (- (* 135 S10) (* X6 S11)))
 (= X8 (- (* X6 S10) (* 135 S11)))
 (= X8 (+ (* 135 S10) (* X7 S11)))
 (= X8 (- (* 135 S10) (* X7 S11)))
 (= X8 (- (* X7 S10) (* 135 S11)))
 (= X8 (+ (* 647 S10) S11))
 (= X8 (- (* 647 S10) S11))
 (= X8 (- S10 (* 647 S11)))
 (= X8 (+ (* 647 S10) (* 647 S11)))
 (= X8 (- (* 647 S10) (* 647 S11)))
 (= X8 (+ (* 647 S10) (* X3 S11)))
 (= X8 (- (* 647 S10) (* X3 S11)))
 (= X8 (- (* X3 S10) (* 647 S11)))
 (= X8 (+ (* 647 S10) (* X4 S11)))
 (= X8 (- (* 647 S10) (* X4 S11)))
 (= X8 (- (* X4 S10) (* 647 S11)))
 (= X8 (+ (* 647 S10) (* X5 S11)))
 (= X8 (- (* 647 S10) (* X5 S11)))
 (= X8 (- (* X5 S10) (* 647 S11)))
 (= X8 (+ (* 647 S10) (* X6 S11)))
 (= X8 (- (* 647 S10) (* X6 S11)))
 (= X8 (- (* X6 S10) (* 647 S11)))
 (= X8 (+ (* 647 S10) (* X7 S11)))
 (= X8 (- (* 647 S10) (* X7 S11)))
 (= X8 (- (* X7 S10) (* 647 S11)))
 (= X8 (+ (* X3 S10) S11))
 (= X8 (- (* X3 S10) S11))
 (= X8 (- S10 (* X3 S11)))
 (= X8 (+ (* X3 S10) (* X3 S11)))
 (= X8 (- (* X3 S10) (* X3 S11)))
 (= X8 (+ (* X3 S10) (* X4 S11)))
 (= X8 (- (* X3 S10) (* X4 S11)))
 (= X8 (- (* X4 S10) (* X3 S11)))
 (= X8 (+ (* X3 S10) (* X5 S11)))
 (= X8 (- (* X3 S10) (* X5 S11)))
 (= X8 (- (* X5 S10) (* X3 S11)))
 (= X8 (+ (* X3 S10) (* X6 S11)))
 (= X8 (- (* X3 S10) (* X6 S11)))
 (= X8 (- (* X6 S10) (* X3 S11)))
 (= X8 (+ (* X3 S10) (* X7 S11)))
 (= X8 (- (* X3 S10) (* X7 S11)))
 (= X8 (- (* X7 S10) (* X3 S11)))
 (= X8 (+ (* X4 S10) S11))
 (= X8 (- (* X4 S10) S11))
 (= X8 (- S10 (* X4 S11)))
 (= X8 (+ (* X4 S10) (* X4 S11)))
 (= X8 (- (* X4 S10) (* X4 S11)))
 (= X8 (+ (* X4 S10) (* X5 S11)))
 (= X8 (- (* X4 S10) (* X5 S11)))
 (= X8 (- (* X5 S10) (* X4 S11)))
 (= X8 (+ (* X4 S10) (* X6 S11)))
 (= X8 (- (* X4 S10) (* X6 S11)))
 (= X8 (- (* X6 S10) (* X4 S11)))
 (= X8 (+ (* X4 S10) (* X7 S11)))
 (= X8 (- (* X4 S10) (* X7 S11)))
 (= X8 (- (* X7 S10) (* X4 S11)))
 (= X8 (+ (* X5 S10) S11))
 (= X8 (- (* X5 S10) S11))
 (= X8 (- S10 (* X5 S11)))
 (= X8 (+ (* X5 S10) (* X5 S11)))
 (= X8 (- (* X5 S10) (* X5 S11)))
 (= X8 (+ (* X5 S10) (* X6 S11)))
 (= X8 (- (* X5 S10) (* X6 S11)))
 (= X8 (- (* X6 S10) (* X5 S11)))
 (= X8 (+ (* X5 S10) (* X7 S11)))
 (= X8 (- (* X5 S10) (* X7 S11)))
 (= X8 (- (* X7 S10) (* X5 S11)))
 (= X8 (+ (* X6 S10) S11))
 (= X8 (- (* X6 S10) S11))
 (= X8 (- S10 (* X6 S11)))
 (= X8 (+ (* X6 S10) (* X6 S11)))
 (= X8 (- (* X6 S10) (* X6 S11)))
 (= X8 (+ (* X6 S10) (* X7 S11)))
 (= X8 (- (* X6 S10) (* X7 S11)))
 (= X8 (- (* X7 S10) (* X6 S11)))
 (= X8 (+ (* X7 S10) S11))
 (= X8 (- (* X7 S10) S11))
 (= X8 (- S10 (* X7 S11)))
 (= X8 (+ (* X7 S10) (* X7 S11)))
 (= X8 (- (* X7 S10) (* X7 S11)))
))
(assert (and (> X8 0) (< X8 2048) (power2 S10) (power2 S11)))
(assert (or
 (= X9 (+ (* 127 S12) S13))
 (= X9 (- (* 127 S12) S13))
 (= X9 (- S12 (* 127 S13)))
 (= X9 (+ (* 127 S12) (* 127 S13)))
 (= X9 (- (* 127 S12) (* 127 S13)))
 (= X9 (+ (* 127 S12) (* 135 S13)))
 (= X9 (- (* 127 S12) (* 135 S13)))
 (= X9 (- (* 135 S12) (* 127 S13)))
 (= X9 (+ (* 127 S12) (* 647 S13)))
 (= X9 (- (* 127 S12) (* 647 S13)))
 (= X9 (- (* 647 S12) (* 127 S13)))
 (= X9 (+ (* 127 S12) (* X3 S13)))
 (= X9 (- (* 127 S12) (* X3 S13)))
 (= X9 (- (* X3 S12) (* 127 S13)))
 (= X9 (+ (* 127 S12) (* X4 S13)))
 (= X9 (- (* 127 S12) (* X4 S13)))
 (= X9 (- (* X4 S12) (* 127 S13)))
 (= X9 (+ (* 127 S12) (* X5 S13)))
 (= X9 (- (* 127 S12) (* X5 S13)))
 (= X9 (- (* X5 S12) (* 127 S13)))
 (= X9 (+ (* 127 S12) (* X6 S13)))
 (= X9 (- (* 127 S12) (* X6 S13)))
 (= X9 (- (* X6 S12) (* 127 S13)))
 (= X9 (+ (* 127 S12) (* X7 S13)))
 (= X9 (- (* 127 S12) (* X7 S13)))
 (= X9 (- (* X7 S12) (* 127 S13)))
 (= X9 (+ (* 127 S12) (* X8 S13)))
 (= X9 (- (* 127 S12) (* X8 S13)))
 (= X9 (- (* X8 S12) (* 127 S13)))
 (= X9 (+ (* 135 S12) S13))
 (= X9 (- (* 135 S12) S13))
 (= X9 (- S12 (* 135 S13)))
 (= X9 (+ (* 135 S12) (* 135 S13)))
 (= X9 (- (* 135 S12) (* 135 S13)))
 (= X9 (+ (* 135 S12) (* 647 S13)))
 (= X9 (- (* 135 S12) (* 647 S13)))
 (= X9 (- (* 647 S12) (* 135 S13)))
 (= X9 (+ (* 135 S12) (* X3 S13)))
 (= X9 (- (* 135 S12) (* X3 S13)))
 (= X9 (- (* X3 S12) (* 135 S13)))
 (= X9 (+ (* 135 S12) (* X4 S13)))
 (= X9 (- (* 135 S12) (* X4 S13)))
 (= X9 (- (* X4 S12) (* 135 S13)))
 (= X9 (+ (* 135 S12) (* X5 S13)))
 (= X9 (- (* 135 S12) (* X5 S13)))
 (= X9 (- (* X5 S12) (* 135 S13)))
 (= X9 (+ (* 135 S12) (* X6 S13)))
 (= X9 (- (* 135 S12) (* X6 S13)))
 (= X9 (- (* X6 S12) (* 135 S13)))
 (= X9 (+ (* 135 S12) (* X7 S13)))
 (= X9 (- (* 135 S12) (* X7 S13)))
 (= X9 (- (* X7 S12) (* 135 S13)))
 (= X9 (+ (* 135 S12) (* X8 S13)))
 (= X9 (- (* 135 S12) (* X8 S13)))
 (= X9 (- (* X8 S12) (* 135 S13)))
 (= X9 (+ (* 647 S12) S13))
 (= X9 (- (* 647 S12) S13))
 (= X9 (- S12 (* 647 S13)))
 (= X9 (+ (* 647 S12) (* 647 S13)))
 (= X9 (- (* 647 S12) (* 647 S13)))
 (= X9 (+ (* 647 S12) (* X3 S13)))
 (= X9 (- (* 647 S12) (* X3 S13)))
 (= X9 (- (* X3 S12) (* 647 S13)))
 (= X9 (+ (* 647 S12) (* X4 S13)))
 (= X9 (- (* 647 S12) (* X4 S13)))
 (= X9 (- (* X4 S12) (* 647 S13)))
 (= X9 (+ (* 647 S12) (* X5 S13)))
 (= X9 (- (* 647 S12) (* X5 S13)))
 (= X9 (- (* X5 S12) (* 647 S13)))
 (= X9 (+ (* 647 S12) (* X6 S13)))
 (= X9 (- (* 647 S12) (* X6 S13)))
 (= X9 (- (* X6 S12) (* 647 S13)))
 (= X9 (+ (* 647 S12) (* X7 S13)))
 (= X9 (- (* 647 S12) (* X7 S13)))
 (= X9 (- (* X7 S12) (* 647 S13)))
 (= X9 (+ (* 647 S12) (* X8 S13)))
 (= X9 (- (* 647 S12) (* X8 S13)))
 (= X9 (- (* X8 S12) (* 647 S13)))
 (= X9 (+ (* X3 S12) S13))
 (= X9 (- (* X3 S12) S13))
 (= X9 (- S12 (* X3 S13)))
 (= X9 (+ (* X3 S12) (* X3 S13)))
 (= X9 (- (* X3 S12) (* X3 S13)))
 (= X9 (+ (* X3 S12) (* X4 S13)))
 (= X9 (- (* X3 S12) (* X4 S13)))
 (= X9 (- (* X4 S12) (* X3 S13)))
 (= X9 (+ (* X3 S12) (* X5 S13)))
 (= X9 (- (* X3 S12) (* X5 S13)))
 (= X9 (- (* X5 S12) (* X3 S13)))
 (= X9 (+ (* X3 S12) (* X6 S13)))
 (= X9 (- (* X3 S12) (* X6 S13)))
 (= X9 (- (* X6 S12) (* X3 S13)))
 (= X9 (+ (* X3 S12) (* X7 S13)))
 (= X9 (- (* X3 S12) (* X7 S13)))
 (= X9 (- (* X7 S12) (* X3 S13)))
 (= X9 (+ (* X3 S12) (* X8 S13)))
 (= X9 (- (* X3 S12) (* X8 S13)))
 (= X9 (- (* X8 S12) (* X3 S13)))
 (= X9 (+ (* X4 S12) S13))
 (= X9 (- (* X4 S12) S13))
 (= X9 (- S12 (* X4 S13)))
 (= X9 (+ (* X4 S12) (* X4 S13)))
 (= X9 (- (* X4 S12) (* X4 S13)))
 (= X9 (+ (* X4 S12) (* X5 S13)))
 (= X9 (- (* X4 S12) (* X5 S13)))
 (= X9 (- (* X5 S12) (* X4 S13)))
 (= X9 (+ (* X4 S12) (* X6 S13)))
 (= X9 (- (* X4 S12) (* X6 S13)))
 (= X9 (- (* X6 S12) (* X4 S13)))
 (= X9 (+ (* X4 S12) (* X7 S13)))
 (= X9 (- (* X4 S12) (* X7 S13)))
 (= X9 (- (* X7 S12) (* X4 S13)))
 (= X9 (+ (* X4 S12) (* X8 S13)))
 (= X9 (- (* X4 S12) (* X8 S13)))
 (= X9 (- (* X8 S12) (* X4 S13)))
 (= X9 (+ (* X5 S12) S13))
 (= X9 (- (* X5 S12) S13))
 (= X9 (- S12 (* X5 S13)))
 (= X9 (+ (* X5 S12) (* X5 S13)))
 (= X9 (- (* X5 S12) (* X5 S13)))
 (= X9 (+ (* X5 S12) (* X6 S13)))
 (= X9 (- (* X5 S12) (* X6 S13)))
 (= X9 (- (* X6 S12) (* X5 S13)))
 (= X9 (+ (* X5 S12) (* X7 S13)))
 (= X9 (- (* X5 S12) (* X7 S13)))
 (= X9 (- (* X7 S12) (* X5 S13)))
 (= X9 (+ (* X5 S12) (* X8 S13)))
 (= X9 (- (* X5 S12) (* X8 S13)))
 (= X9 (- (* X8 S12) (* X5 S13)))
 (= X9 (+ (* X6 S12) S13))
 (= X9 (- (* X6 S12) S13))
 (= X9 (- S12 (* X6 S13)))
 (= X9 (+ (* X6 S12) (* X6 S13)))
 (= X9 (- (* X6 S12) (* X6 S13)))
 (= X9 (+ (* X6 S12) (* X7 S13)))
 (= X9 (- (* X6 S12) (* X7 S13)))
 (= X9 (- (* X7 S12) (* X6 S13)))
 (= X9 (+ (* X6 S12) (* X8 S13)))
 (= X9 (- (* X6 S12) (* X8 S13)))
 (= X9 (- (* X8 S12) (* X6 S13)))
 (= X9 (+ (* X7 S12) S13))
 (= X9 (- (* X7 S12) S13))
 (= X9 (- S12 (* X7 S13)))
 (= X9 (+ (* X7 S12) (* X7 S13)))
 (= X9 (- (* X7 S12) (* X7 S13)))
 (= X9 (+ (* X7 S12) (* X8 S13)))
 (= X9 (- (* X7 S12) (* X8 S13)))
 (= X9 (- (* X8 S12) (* X7 S13)))
 (= X9 (+ (* X8 S12) S13))
 (= X9 (- (* X8 S12) S13))
 (= X9 (- S12 (* X8 S13)))
 (= X9 (+ (* X8 S12) (* X8 S13)))
 (= X9 (- (* X8 S12) (* X8 S13)))
))
(assert (and (> X9 0) (< X9 2048) (power2 S12) (power2 S13)))
(assert (or
 (= X4 57)
 (= X5 57)
 (= X6 57)
 (= X7 57)
 (= X8 57)
 (= X9 57)
))
(assert (or
 (= X4 99)
 (= X5 99)
 (= X6 99)
 (= X7 99)
 (= X8 99)
 (= X9 99)
))
(assert (or
 (= X4 367)
 (= X5 367)
 (= X6 367)
 (= X7 367)
 (= X8 367)
 (= X9 367)
))
(assert (or
 (= X4 403)
 (= X5 403)
 (= X6 403)
 (= X7 403)
 (= X8 403)
 (= X9 403)
))
(assert (or
 (= X4 51)
 (= X5 51)
 (= X6 51)
 (= X7 51)
 (= X8 51)
 (= X9 51)
))
(assert (or
 (= X4 261)
 (= X5 261)
 (= X6 261)
 (= X7 261)
 (= X8 261)
 (= X9 261)
))
(check-sat)
(exit)
